certificates/rado_a10_c142_N20.drat
14 -19 -20 0
15 17 -14 0
-19 -20 0
d 14 -19 -20 0
-15 -20 0
-14 -20 0
-20 0
15 0
-7 0
14 0
-12 0
-16 0
-17 0
-13 0
-6 0
2 0
1 0
8 0
19 0
4 0
5 0
18 0
0
